// Objective function
max: 193x11 + 154x21 + 202x31 + 180x41 + 124x51 + 178x61 + 177x71 + 175x81 + 151x91 + 213x101 + 189x111 + 162x121 + 193x12 + 154x22 + 202x32 + 180x42 + 124x52 + 178x62 + 177x72 + 175x82 + 151x92 + 213x102 + 189x112 + 162x122 + 193x13 + 154x23 + 202x33 + 180x43 + 124x53 + 178x63 + 177x73 + 175x83 + 151x93 + 213x103 + 189x113 + 162x123 + 193x14 + 154x24 + 202x34 + 180x44 + 124x54 + 178x64 + 177x74 + 175x84 + 151x94 + 213x104 + 189x114 + 162x124;       

// Constraints
S1: x11 + x12 + x13 + x14 = 1;     
S2: x21 + x22 + x23 + x24 = 1;
S3: x31 + x32 + x33 + x34 = 1;
S4: x41 + x42 + x43 + x44 = 1;
S5: x51 + x52 + x53 + x54 = 1;
S6: x61 + x62 + x63 + x64 = 1;
S7: x71 + x72 + x73 + x74 = 1;
S8: x81 + x82 + x83 + x84 = 1;
S9: x91 + x92 + x93 + x94 = 1;
S10: x101 + x102 + x103 + x104 = 1;
S11: x111 + x112 + x113 + x114 = 1;
S12: x121 + x122 + x123 + x124 = 1;
G1: x11 + x21 + x31 + x41 + x51 + x61 + x71 + x81 + x91 + x101 + x111 + x121 =3;
G2: x12 + x22 + x32 + x42 + x52 + x62 + x72 + x82 + x92 + x102 + x112 + x122 =3;
G3: x13 + x23 + x33 + x43 + x53 + x63 + x73 + x83 + x93 + x103 + x113 + x123 =3;
G4: x14 + x24 + x34 + x44 + x54 + x64 + x74 + x84 + x94 + x104 + x114 + x124 =3;

bin x11, x12, x13, x14, x21, x22, x23, x24, x31, x32, x33, x34, x41, x42, x43, x44, x51, x52, x53, x54, x61, x62, x63, x64, x71, x72, x73, x74, x81, x82, x83, x84, x91, x92, x93, x94, x101, x102, x103, x104, x111, x112, x113, x114, x121, x122, x123, x124;